NAME : XML100_3351_17
DIMENSION : 101
NB_CLUSTERS : 3
CLUSTERING_ALG : KMedoids
CLUSTERING_PARAMS : k(2)
CLUSTERS
1 0
2 1 4 5 8 9 10 12 13 16 18 20 22 24 25 26 27 28 29 32 34 35 36 37 39 40 41 42 45 47 48 49 51 52 53 54 56 58 59 61 62 63 64 65 67 68 71 73 74 75 77 79 80 82 83 84 85 86 87 88 89 90 91 93 94 98 99
3 2 3 6 7 11 14 15 17 19 21 23 30 31 33 38 43 44 46 50 55 57 60 66 69 70 72 76 78 81 92 95 96 97 100
EOF